(set-logic FO)
(set-info :status unsat)
(declare-fun f (Term Term) Bool)
(declare-fun g (Term Term) Bool)
(declare-fun h (Term Term) Bool)
(assert (forall ((x Term)) (exists ((y Term)) (f x y))))
(assert (forall ((x Term)) (exists ((y Term)) (g x y))))
(assert (forall ((x Term) (y Term)) (=> (or (f x y) (g x y)) (forall ((z Term)) (=> (or (f y z) (g y z)) (h x z))))))
(assert (not (forall ((x Term)) (exists ((y Term)) (h x y)))))
(check-sat)
(exit)
